NAME          DCAP_3_4_2_500_SS26
ROWS
 N  OBJ
 L  CON1
 L  CON2
 L  CON3
 L  CON4
 L  CON5
 L  CON6
 L  CON7
 L  CON8
 L  CON9
 L  CON10
 L  CON11
 L  CON12
 E  CON13
 E  CON14
 E  CON15
 E  CON16
 E  CON17
 E  CON18
 E  CON19
 E  CON20
COLUMNS
    x[1,1]    OBJ       6.180167      CON1      1.000000    
    x[1,1]    CON7      -1.000000     CON8      -1.000000   
    x[1,2]    OBJ       5.039546      CON2      1.000000    
    x[1,2]    CON8      -1.000000   
    x[2,1]    OBJ       6.732585      CON3      1.000000    
    x[2,1]    CON9      -1.000000     CON10     -1.000000   
    x[2,2]    OBJ       7.443064      CON4      1.000000    
    x[2,2]    CON10     -1.000000   
    x[3,1]    OBJ       6.563535      CON5      1.000000    
    x[3,1]    CON11     -1.000000     CON12     -1.000000   
    x[3,2]    OBJ       6.054841      CON6      1.000000    
    x[3,2]    CON12     -1.000000   
    MARKER    'MARKER'                'INTORG'
    u[1,1]    OBJ       48.076654     CON1      -1.000000   
    u[1,2]    OBJ       49.466655     CON2      -1.000000   
    u[2,1]    OBJ       49.996186     CON3      -1.000000   
    u[2,2]    OBJ       32.230043     CON4      -1.000000   
    u[3,1]    OBJ       20.066487     CON5      -1.000000   
    u[3,2]    OBJ       27.484319     CON6      -1.000000   
    y[1,1,1]  OBJ       9.223178      CON7      0.787722    
    y[1,1,1]  CON13     1.000000    
    y[1,1,2]  OBJ       6.459525      CON8      0.998579    
    y[1,1,2]  CON14     1.000000    
    y[1,2,1]  OBJ       6.406711      CON7      1.020272    
    y[1,2,1]  CON15     1.000000    
    y[1,2,2]  OBJ       8.206722      CON8      1.221077    
    y[1,2,2]  CON16     1.000000    
    y[1,3,1]  OBJ       8.053914      CON7      1.345705    
    y[1,3,1]  CON17     1.000000    
    y[1,3,2]  OBJ       8.453981      CON8      1.317530    
    y[1,3,2]  CON18     1.000000    
    y[1,4,1]  OBJ       5.432379      CON7      1.430579    
    y[1,4,1]  CON19     1.000000    
    y[1,4,2]  OBJ       6.339545      CON8      0.845585    
    y[1,4,2]  CON20     1.000000    
    y[2,1,1]  OBJ       5.299616      CON9      0.787722    
    y[2,1,1]  CON13     1.000000    
    y[2,1,2]  OBJ       7.599792      CON10     0.998579    
    y[2,1,2]  CON14     1.000000    
    y[2,2,1]  OBJ       6.208862      CON9      1.020272    
    y[2,2,1]  CON15     1.000000    
    y[2,2,2]  OBJ       7.960195      CON10     1.221077    
    y[2,2,2]  CON16     1.000000    
    y[2,3,1]  OBJ       7.600659      CON9      1.345705    
    y[2,3,1]  CON17     1.000000    
    y[2,3,2]  OBJ       8.953496      CON10     1.317530    
    y[2,3,2]  CON18     1.000000    
    y[2,4,1]  OBJ       6.235700      CON9      1.430579    
    y[2,4,1]  CON19     1.000000    
    y[2,4,2]  OBJ       8.563535      CON10     0.845585    
    y[2,4,2]  CON20     1.000000    
    y[3,1,1]  OBJ       9.262542      CON11     0.787722    
    y[3,1,1]  CON13     1.000000    
    y[3,1,2]  OBJ       5.839671      CON12     0.998579    
    y[3,1,2]  CON14     1.000000    
    y[3,2,1]  OBJ       8.044724      CON11     1.020272    
    y[3,2,1]  CON15     1.000000    
    y[3,2,2]  OBJ       8.652638      CON12     1.221077    
    y[3,2,2]  CON16     1.000000    
    y[3,3,1]  OBJ       6.957803      CON11     1.345705    
    y[3,3,1]  CON17     1.000000    
    y[3,3,2]  OBJ       9.899360      CON12     1.317530    
    y[3,3,2]  CON18     1.000000    
    y[3,4,1]  OBJ       9.434031      CON11     1.430579    
    y[3,4,1]  CON19     1.000000    
    y[3,4,2]  OBJ       6.457461      CON12     0.845585    
    y[3,4,2]  CON20     1.000000    
    z[1,1]    OBJ       736.637911    CON13     1.000000    
    z[1,2]    OBJ       640.517080    CON14     1.000000    
    z[2,1]    OBJ       702.074588    CON15     1.000000    
    z[2,2]    OBJ       965.543236    CON16     1.000000    
    z[3,1]    OBJ       927.701820    CON17     1.000000    
    z[3,2]    OBJ       754.637544    CON18     1.000000    
    z[4,1]    OBJ       764.391035    CON19     1.000000    
    z[4,2]    OBJ       591.178018    CON20     1.000000    
    MARKER    'MARKER'                 'INTEND'
RHS
    RHS       CON1      -0.000000     CON2      -0.000000   
    RHS       CON3      -0.000000     CON4      -0.000000   
    RHS       CON5      -0.000000     CON6      -0.000000   
    RHS       CON7      -0.000000     CON8      -0.000000   
    RHS       CON9      -0.000000     CON10     -0.000000   
    RHS       CON11     -0.000000     CON12     -0.000000   
    RHS       CON13     1.000000      CON14     1.000000    
    RHS       CON15     1.000000      CON16     1.000000    
    RHS       CON17     1.000000      CON18     1.000000    
    RHS       CON19     1.000000      CON20     1.000000    
BOUNDS
 BV BOUND     u[1,1]  
 BV BOUND     u[1,2]  
 BV BOUND     u[2,1]  
 BV BOUND     u[2,2]  
 BV BOUND     u[3,1]  
 BV BOUND     u[3,2]  
 BV BOUND     y[1,1,1]
 BV BOUND     y[1,1,2]
 BV BOUND     y[1,2,1]
 BV BOUND     y[1,2,2]
 BV BOUND     y[1,3,1]
 BV BOUND     y[1,3,2]
 BV BOUND     y[1,4,1]
 BV BOUND     y[1,4,2]
 BV BOUND     y[2,1,1]
 BV BOUND     y[2,1,2]
 BV BOUND     y[2,2,1]
 BV BOUND     y[2,2,2]
 BV BOUND     y[2,3,1]
 BV BOUND     y[2,3,2]
 BV BOUND     y[2,4,1]
 BV BOUND     y[2,4,2]
 BV BOUND     y[3,1,1]
 BV BOUND     y[3,1,2]
 BV BOUND     y[3,2,1]
 BV BOUND     y[3,2,2]
 BV BOUND     y[3,3,1]
 BV BOUND     y[3,3,2]
 BV BOUND     y[3,4,1]
 BV BOUND     y[3,4,2]
 BV BOUND     z[1,1]  
 BV BOUND     z[1,2]  
 BV BOUND     z[2,1]  
 BV BOUND     z[2,2]  
 BV BOUND     z[3,1]  
 BV BOUND     z[3,2]  
 BV BOUND     z[4,1]  
 BV BOUND     z[4,2]  
ENDATA
